results/heuristics/cvrp_lkh/Vrp-Set-A-n34/Vrp-Set-A-n34-lkh/0.lkh1.vrp
NAME : 0
COMMENT : CVRP Instance
TYPE : CVRP
DIMENSION : 34
EDGE_WEIGHT_TYPE : EUC_2D
CAPACITY : 100
NODE_COORD_SECTION
1	7300	3900
2	6700	9100
3	3900	2100
4	300	900
5	9700	1500
6	9100	6500
7	5500	7500
8	5500	7100
9	5700	8500
10	2100	1500
11	4700	5700
12	5100	9700
13	1100	1100
14	4300	5900
15	6300	6900
16	5500	7700
17	3500	1100
18	2700	9100
19	4900	2500
20	2900	9300
21	7100	2700
22	3100	4300
23	2700	900
24	6700	9900
25	8700	8100
26	2300	8100
27	8900	3300
28	7100	9100
29	1900	7700
30	6500	7700
31	8700	7900
32	1900	8300
33	100	5900
34	5500	700
DEMAND_SECTION
1	0
2	23
3	3
4	24
5	15
6	15
7	24
8	7
9	25
10	13
11	5
12	7
13	5
14	14
15	13
16	5
17	24
18	15
19	9
20	16
21	13
22	16
23	13
24	24
25	20
26	23
27	20
28	3
29	15
30	12
31	19
32	4
33	15
34	1
DEPOT_SECTION
1
-1
EOF
