results/heuristics/cvrp_lkh/Vrp-Set-A-n34/Vrp-Set-A-n34-lkh/0.lkh1.log
PARAMETER_FILE = ../../results/heuristics/cvrp_lkh/Vrp-Set-A-n34/Vrp-Set-A-n34-lkh/0.lkh1.par
Reading PROBLEM_FILE: "../../results/heuristics/cvrp_lkh/Vrp-Set-A-n34/Vrp-Set-A-n34-lkh/0.lkh1.vrp" ... done
ASCENT_CANDIDATES = 33
BACKBONE_TRIALS = 0
BACKTRACKING = NO
# BWTSP =
# CANDIDATE_FILE =
CANDIDATE_SET_TYPE = ALPHA
# DISTANCE =
DEPOT = 1
# EDGE_FILE =
EXCESS = 0.0294118
EXTERNAL_SALESMEN = 0
EXTRA_CANDIDATES = 0 
EXTRA_CANDIDATE_SET_TYPE = QUADRANT
GAIN23 = NO
GAIN_CRITERION = YES
INITIAL_PERIOD = 100
INITIAL_STEP_SIZE = 1
INITIAL_TOUR_ALGORITHM = WALK
# INITIAL_TOUR_FILE = 
INITIAL_TOUR_FRACTION = 1.000
# INPUT_TOUR_FILE = 
KICK_TYPE = 4
KICKS = 1
# MAX_BREADTH =
MAKESPAN = NO
MAX_CANDIDATES = 5 
MAX_SWAPS = 0
MAX_TRIALS = 10000
# MERGE_TOUR_FILE =
MOVE_TYPE = 5 SPECIAL
MTSP_MIN_SIZE = 1
MTSP_MAX_SIZE = 33
# MTSP_SOLUTION_FILE = 
# NONSEQUENTIAL_MOVE_TYPE = 5
# OPTIMUM =
OUTPUT_TOUR_FILE = ../../results/heuristics/cvrp_lkh/Vrp-Set-A-n34/Vrp-Set-A-n34-lkh/0.lkh1.tour
PATCHING_A = 1 
PATCHING_C = 0 
# PI_FILE = 
POPMUSIC_INITIAL_TOUR = NO
POPMUSIC_MAX_NEIGHBORS = 5
POPMUSIC_SAMPLE_SIZE = 10
POPMUSIC_SOLUTIONS = 50
POPMUSIC_TRIALS = 1
POPULATION_SIZE = 10
PRECISION = 100
PROBLEM_FILE = ../../results/heuristics/cvrp_lkh/Vrp-Set-A-n34/Vrp-Set-A-n34-lkh/0.lkh1.vrp
RECOMBINATION = IPT
RESTRICTED_SEARCH = YES
RUNS = 1
SALESMEN = 5
SCALE = 1
SEED = 1234
# SINTEF_SOLUTION_FILE = 
STOP_AT_OPTIMUM = YES
SUBGRADIENT = YES
# SUBPROBLEM_SIZE =
# SUBPROBLEM_TOUR_FILE = 
SUBSEQUENT_MOVE_TYPE = 5 SPECIAL
SUBSEQUENT_PATCHING = YES
# TIME_LIMIT =
# TOTAL_TIME_LIMIT =
# TOUR_FILE = 
TRACE_LEVEL = 1
VEHICLES = 5

Lower bound = 59617.7, Ascent time = 0.01 sec.
Cand.min = 4, Cand.avg = 5.0, Cand.max = 5
Preprocessing time = 0.01 sec.
* 1: Cost = 0_79357, Time = 0.00 sec. 
Writing OUTPUT_TOUR_FILE: "../../results/heuristics/cvrp_lkh/Vrp-Set-A-n34/Vrp-Set-A-n34-lkh/0.lkh1.tour" ... done
* 2: Cost = 0_79297, Time = 0.01 sec. 
Writing OUTPUT_TOUR_FILE: "../../results/heuristics/cvrp_lkh/Vrp-Set-A-n34/Vrp-Set-A-n34-lkh/0.lkh1.tour" ... done
* 4: Cost = 0_79194, Time = 0.01 sec. 
Writing OUTPUT_TOUR_FILE: "../../results/heuristics/cvrp_lkh/Vrp-Set-A-n34/Vrp-Set-A-n34-lkh/0.lkh1.tour" ... done
* 5: Cost = 0_79039, Time = 0.02 sec. 
Writing OUTPUT_TOUR_FILE: "../../results/heuristics/cvrp_lkh/Vrp-Set-A-n34/Vrp-Set-A-n34-lkh/0.lkh1.tour" ... done
* 13: Cost = 0_78198, Time = 0.03 sec. 
Writing OUTPUT_TOUR_FILE: "../../results/heuristics/cvrp_lkh/Vrp-Set-A-n34/Vrp-Set-A-n34-lkh/0.lkh1.tour" ... done
* 35: Cost = 0_78095, Time = 0.08 sec. 
Writing OUTPUT_TOUR_FILE: "../../results/heuristics/cvrp_lkh/Vrp-Set-A-n34/Vrp-Set-A-n34-lkh/0.lkh1.tour" ... done
